BAYES
144
2 2 2 2 2 2 2 2 2 2 2 2 2 2 2 2 2 2 2 2 2 2 2 2 2 2 2 2 2 2 2 2 2 2 2 2 2 2 2 2 2 2 2 2 2 2 2 2 2 2 2 2 2 2 2 2 2 2 2 2 2 2 2 2 2 2 2 2 2 2 2 2 2 2 2 2 2 2 2 2 2 2 2 2 2 2 2 2 2 2 2 2 2 2 2 2 2 2 2 2 2 2 2 2 2 2 2 2 2 2 2 2 2 2 2 2 2 2 2 2 2 2 2 2 2 2 2 2 2 2 2 2 2 2 2 2 2 2 2 2 2 2 2 2
144
3 12 1 0
3 13 2 1
3 14 3 2
3 15 4 3
3 16 5 4
3 17 6 5
3 18 7 6
3 19 8 7
3 20 9 8
3 21 10 9
3 22 11 10
2 23 11
3 24 13 12
3 25 14 13
3 26 15 14
3 27 16 15
3 28 17 16
3 29 18 17
3 30 19 18
3 31 20 19
3 32 21 20
3 33 22 21
3 34 23 22
2 35 23
3 36 25 24
3 37 26 25
3 38 27 26
3 39 28 27
3 40 29 28
3 41 30 29
3 42 31 30
3 43 32 31
3 44 33 32
3 45 34 33
3 46 35 34
2 47 35
3 48 37 36
3 49 38 37
3 50 39 38
3 51 40 39
3 52 41 40
3 53 42 41
3 54 43 42
3 55 44 43
3 56 45 44
3 57 46 45
3 58 47 46
2 59 47
3 60 49 48
3 61 50 49
3 62 51 50
3 63 52 51
3 64 53 52
3 65 54 53
3 66 55 54
3 67 56 55
3 68 57 56
3 69 58 57
3 70 59 58
2 71 59
3 72 61 60
3 73 62 61
3 74 63 62
3 75 64 63
3 76 65 64
3 77 66 65
3 78 67 66
3 79 68 67
3 80 69 68
3 81 70 69
3 82 71 70
2 83 71
3 84 73 72
3 85 74 73
3 86 75 74
3 87 76 75
3 88 77 76
3 89 78 77
3 90 79 78
3 91 80 79
3 92 81 80
3 93 82 81
3 94 83 82
2 95 83
3 96 85 84
3 97 86 85
3 98 87 86
3 99 88 87
3 100 89 88
3 101 90 89
3 102 91 90
3 103 92 91
3 104 93 92
3 105 94 93
3 106 95 94
2 107 95
3 108 97 96
3 109 98 97
3 110 99 98
3 111 100 99
3 112 101 100
3 113 102 101
3 114 103 102
3 115 104 103
3 116 105 104
3 117 106 105
3 118 107 106
2 119 107
3 120 109 108
3 121 110 109
3 122 111 110
3 123 112 111
3 124 113 112
3 125 114 113
3 126 115 114
3 127 116 115
3 128 117 116
3 129 118 117
3 130 119 118
2 131 119
3 132 121 120
3 133 122 121
3 134 123 122
3 135 124 123
3 136 125 124
3 137 126 125
3 138 127 126
3 139 128 127
3 140 129 128
3 141 130 129
3 142 131 130
2 143 131
2 133 132
2 134 133
2 135 134
2 136 135
2 137 136
2 138 137
2 139 138
2 140 139
2 141 140
2 142 141
2 143 142
1  143
8
0 1 0 1 1 0 0 1
8
0 1 0 1 0 1 1 0
8
0 1 1 0 0 1 0 1
8
0.5891471562864892 0.4108528437135108 0.4925277239731409 0.5074722760268592 0.43528355052317275 0.5647164494768272 0.5227003871374196 0.4772996128625804
8
1 0 0 1 0 1 1 0
8
1 0 0 1 0 1 0 1
8
1 0 0 1 1 0 1 0
8
0 1 1 0 0 1 0 1
8
1 0 0 1 0 1 1 0
8
0 1 0 1 0 1 1 0
8
0 1 0 1 1 0 1 0
4
0 1 1 0
8
0 1 1 0 0 1 0 1
8
0 1 0 1 0 1 0 1
8
0 1 0 1 0 1 0 1
8
0 1 1 0 0 1 0 1
8
0.6153449541349053 0.3846550458650947 0.45462496408613917 0.5453750359138608 0.4925014367169084 0.5074985632830916 0.702892840307803 0.2971071596921969
8
0.5780950311421919 0.4219049688578082 0.35191686249039855 0.6480831375096014 0.6544404144230058 0.3455595855769941 0.5775944406996179 0.4224055593003822
8
0 1 0 1 1 0 1 0
8
1 0 0 1 1 0 0 1
8
1 0 0 1 1 0 0 1
8
0 1 0 1 1 0 0 1
8
1 0 0 1 0 1 0 1
4
0.515063601234851 0.48493639876514905 0.11863350670496678 0.8813664932950332
8
0 1 1 0 1 0 1 0
8
1 0 0 1 1 0 1 0
8
1 0 1 0 1 0 1 0
8
1 0 1 0 0 1 0 1
8
0.9109853699712404 0.0890146300287596 0.6085476553548672 0.3914523446451328 0.4873184293278501 0.51268157067215 0.5829769867284573 0.4170230132715426
8
0 1 1 0 0 1 1 0
8
1 0 1 0 1 0 1 0
8
1 0 0 1 1 0 1 0
8
0.3280354875283174 0.6719645124716825 0.8006954973480472 0.19930450265195285 0.6253039695312085 0.3746960304687915 0.4276655582704464 0.5723344417295537
8
0 1 0 1 0 1 1 0
8
0 1 0 1 1 0 0 1
4
1 0 0 1
8
1 0 1 0 0 1 0 1
8
0 1 1 0 0 1 0 1
8
0.526718397328298 0.4732816026717021 0.14938554741810228 0.8506144525818977 0.3393433523036423 0.6606566476963576 0.9654856477993815 0.034514352200618506
8
1 0 1 0 0 1 1 0
8
0 1 1 0 1 0 1 0
8
0 1 0 1 1 0 0 1
8
0.044181095500030056 0.95581890449997 0.9214624302161843 0.07853756978381567 0.2648807147299924 0.7351192852700076 0.7641882287529065 0.23581177124709354
8
0 1 0 1 1 0 0 1
8
1 0 1 0 0 1 0 1
8
1 0 1 0 0 1 0 1
8
0 1 1 0 0 1 1 0
4
0 1 1 0
8
1 0 1 0 0 1 0 1
8
1 0 1 0 0 1 0 1
8
1 0 1 0 0 1 1 0
8
0 1 0 1 1 0 0 1
8
0 1 1 0 0 1 0 1
8
0 1 0 1 0 1 0 1
8
0 1 1 0 1 0 1 0
8
0 1 0 1 0 1 0 1
8
1 0 0 1 0 1 1 0
8
1 0 0 1 0 1 0 1
8
0.5613013082332287 0.43869869176677134 0.2609078481550611 0.7390921518449388 0.5221284923452265 0.47787150765477354 0.47678961432225625 0.5232103856777438
4
0 1 0 1
8
1 0 1 0 1 0 1 0
8
0 1 1 0 1 0 1 0
8
1 0 0 1 0 1 1 0
8
0.914223975475791 0.085776024524209 0.7147841919985573 0.28521580800144275 0.6410833586973049 0.35891664130269507 0.249935401102003 0.750064598897997
8
1 0 0 1 0 1 1 0
8
1 0 0 1 0 1 0 1
8
0 1 1 0 0 1 0 1
8
0 1 1 0 1 0 1 0
8
0 1 1 0 0 1 1 0
8
0 1 1 0 0 1 1 0
8
0.2311976789283016 0.7688023210716984 0.34796958471110306 0.6520304152888969 0.10888705304106808 0.8911129469589318 0.5701168240446375 0.4298831759553626
4
1 0 0 1
8
1 0 1 0 0 1 0 1
8
0 1 0 1 1 0 1 0
8
0 1 0 1 0 1 0 1
8
1 0 0 1 1 0 0 1
8
1 0 1 0 1 0 1 0
8
0 1 1 0 0 1 1 0
8
1 0 0 1 0 1 0 1
8
0 1 1 0 1 0 0 1
8
0.29878790240936326 0.7012120975906369 0.40190393131777685 0.5980960686822232 0.8078474931323951 0.19215250686760485 0.562069658905506 0.43793034109449397
8
0 1 0 1 0 1 0 1
8
1 0 0 1 1 0 0 1
4
1 0 1 0
8
1 0 0 1 1 0 1 0
8
1 0 0 1 0 1 0 1
8
1 0 0 1 0 1 1 0
8
0 1 1 0 1 0 0 1
8
0 1 1 0 0 1 1 0
8
1 0 0 1 1 0 0 1
8
0.3446242948215556 0.6553757051784445 0.8973864562561495 0.10261354374385047 0.3417169019801127 0.6582830980198873 0.5606156840221693 0.4393843159778307
8
1 0 1 0 1 0 1 0
8
0 1 1 0 1 0 0 1
8
0 1 1 0 0 1 0 1
8
1 0 0 1 0 1 1 0
4
0 1 0 1
8
1 0 0 1 1 0 0 1
8
1 0 1 0 0 1 1 0
8
0 1 0 1 1 0 1 0
8
1 0 0 1 1 0 0 1
8
1 0 1 0 0 1 0 1
8
1 0 0 1 1 0 1 0
8
0 1 1 0 0 1 1 0
8
1 0 0 1 1 0 1 0
8
0 1 0 1 0 1 0 1
8
0 1 0 1 0 1 1 0
8
1 0 0 1 1 0 0 1
4
0 1 0 1
8
1 0 0 1 1 0 1 0
8
1 0 0 1 1 0 1 0
8
1 0 0 1 1 0 0 1
8
1 0 0 1 1 0 1 0
8
0 1 0 1 1 0 1 0
8
0 1 1 0 1 0 0 1
8
0.24751793612458536 0.7524820638754146 0.45069229496902413 0.5493077050309759 0.38608852802921 0.61391147197079 0.575683047113856 0.424316952886144
8
1 0 1 0 0 1 0 1
8
0 1 1 0 0 1 1 0
8
0 1 0 1 0 1 0 1
8
0 1 1 0 1 0 0 1
4
0 1 1 0
8
1 0 1 0 1 0 0 1
8
1 0 0 1 0 1 0 1
8
0 1 1 0 0 1 1 0
8
0 1 0 1 0 1 0 1
8
0 1 1 0 1 0 0 1
8
1 0 0 1 0 1 1 0
8
1 0 1 0 1 0 1 0
8
1 0 0 1 0 1 1 0
8
1 0 0 1 1 0 0 1
8
1 0 1 0 0 1 0 1
8
0.47938556647658126 0.5206144335234187 0.858799986639223 0.14120001336077706 0.8565373098282641 0.14346269017173585 0.6197473154784906 0.38025268452150934
4
0 1 1 0
4
1 0 0 1
4
1 0 1 0
4
1 0 0 1
4
1 0 0 1
4
1 0 0 1
4
1 0 1 0
4
1 0 0 1
4
0 1 0 1
4
0 1 0 1
4
1 0 1 0
4
1 0 1 0
2
1 0
